NAME respiration_srl_ilp
* Max problem is converted into Min one
ROWS
 N  OBJ
 L  constraint1_4367
 L  constraint1_4362
 L  constraint1_4364
 L  constraint1_4365
 L  constraint1_4361
 L  constraint1_4366
 L  constraint1_4360
 L  constraint1_550
 L  constraint1_5990
 L  constraint1_6160
 L  constraint1_5890
 L  constraint1_2030
 L  constraint2_4360
 L  constraint2_4361
 L  constraint2_4362
 L  constraint2_4363
 L  constraint2_550
 L  constraint2_551
 L  constraint2_552
 L  constraint2_553
 L  constraint2_5990
 L  constraint2_5991
 L  constraint2_5992
 L  constraint2_5993
 L  constraint2_6160
 L  constraint2_6161
 L  constraint2_6162
 L  constraint2_6163
 L  constraint2_5890
 L  constraint2_5891
 L  constraint2_5892
 L  constraint2_5893
 L  constraint2_2030
 L  constraint2_2031
 L  constraint2_2032
 L  constraint2_2033
 L  constraint2_1970
 L  constraint2_1971
 L  constraint2_1972
 L  constraint2_1973
COLUMNS
    MARKER    'MARKER'                 'INTORG'
    Z_436_7_0  OBJ       -1.0831051718051897e-01
    Z_436_7_0  constraint1_4367  1
    Z_436_7_0  constraint2_4360  1
    Z_436_7_1  OBJ       -6.7870998319453382e-02
    Z_436_7_1  constraint1_4367  1
    Z_436_7_1  constraint2_4361  1
    Z_436_7_2  OBJ       -7.2127623829345067e-02
    Z_436_7_2  constraint1_4367  1
    Z_436_7_2  constraint2_4362  1
    Z_436_7_3  OBJ       -2.7158298191727374e-02
    Z_436_7_3  constraint1_4367  1
    Z_436_7_3  constraint2_4363  1
    Z_436_7_4  OBJ       -6.2453256247895517e-01
    Z_436_7_4  constraint1_4367  1
    Z_436_2_0  OBJ       -6.5322533220941396e-03
    Z_436_2_0  constraint1_4362  1
    Z_436_2_0  constraint2_4360  1
    Z_436_2_1  OBJ       -1.1586128139248870e-02
    Z_436_2_1  constraint1_4362  1
    Z_436_2_1  constraint2_4361  1
    Z_436_2_2  OBJ       -1.1344700751059604e-02
    Z_436_2_2  constraint1_4362  1
    Z_436_2_2  constraint2_4362  1
    Z_436_2_3  OBJ       -2.4359239850821880e-02
    Z_436_2_3  constraint1_4362  1
    Z_436_2_3  constraint2_4363  1
    Z_436_2_4  OBJ       -8.4617767793677556e-01
    Z_436_2_4  constraint1_4362  1
    Z_436_4_0  OBJ       -5.1318824461482322e-04
    Z_436_4_0  constraint1_4364  1
    Z_436_4_0  constraint2_4360  1
    Z_436_4_1  OBJ       -2.1057386830946414e-03
    Z_436_4_1  constraint1_4364  1
    Z_436_4_1  constraint2_4361  1
    Z_436_4_2  OBJ       -3.7197222837061167e-01
    Z_436_4_2  constraint1_4364  1
    Z_436_4_2  constraint2_4362  1
    Z_436_4_3  OBJ       -1.0447562350243524e-03
    Z_436_4_3  constraint1_4364  1
    Z_436_4_3  constraint2_4363  1
    Z_436_4_4  OBJ       -5.2436408846665461e-01
    Z_436_4_4  constraint1_4364  1
    Z_436_5_0  OBJ       -3.9195140440424892e-01
    Z_436_5_0  constraint1_4365  1
    Z_436_5_0  constraint2_4360  1
    Z_436_5_1  OBJ       -4.2560219461268006e-03
    Z_436_5_1  constraint1_4365  1
    Z_436_5_1  constraint2_4361  1
    Z_436_5_2  OBJ       -5.8570240986724389e-03
    Z_436_5_2  constraint1_4365  1
    Z_436_5_2  constraint2_4362  1
    Z_436_5_3  OBJ       -2.1156131851275627e-03
    Z_436_5_3  constraint1_4365  1
    Z_436_5_3  constraint2_4363  1
    Z_436_5_4  OBJ       -4.9581993636582439e-01
    Z_436_5_4  constraint1_4365  1
    Z_436_1_0  OBJ       -1.0831051718051897e-01
    Z_436_1_0  constraint1_4361  1
    Z_436_1_0  constraint2_4360  1
    Z_436_1_1  OBJ       -6.7870998319453382e-02
    Z_436_1_1  constraint1_4361  1
    Z_436_1_1  constraint2_4361  1
    Z_436_1_2  OBJ       -7.2127623829345067e-02
    Z_436_1_2  constraint1_4361  1
    Z_436_1_2  constraint2_4362  1
    Z_436_1_3  OBJ       -2.7158298191727374e-02
    Z_436_1_3  constraint1_4361  1
    Z_436_1_3  constraint2_4363  1
    Z_436_1_4  OBJ       -6.2453256247895517e-01
    Z_436_1_4  constraint1_4361  1
    Z_436_6_0  OBJ       -3.2626047941577772e-02
    Z_436_6_0  constraint1_4366  1
    Z_436_6_0  constraint2_4360  1
    Z_436_6_1  OBJ       -1.2039920025734492e-01
    Z_436_6_1  constraint1_4366  1
    Z_436_6_1  constraint2_4361  1
    Z_436_6_2  OBJ       -2.9215288567129181e-03
    Z_436_6_2  constraint1_4366  1
    Z_436_6_2  constraint2_4362  1
    Z_436_6_3  OBJ       -9.4030634476630959e-02
    Z_436_6_3  constraint1_4366  1
    Z_436_6_3  constraint2_4363  1
    Z_436_6_4  OBJ       -6.5002258846773342e-01
    Z_436_6_4  constraint1_4366  1
    Z_436_0_0  OBJ       -3.0106948834303468e-04
    Z_436_0_0  constraint1_4360  1
    Z_436_0_0  constraint2_4360  1
    Z_436_0_1  OBJ       -1.9825201374096143e-03
    Z_436_0_1  constraint1_4360  1
    Z_436_0_1  constraint2_4361  1
    Z_436_0_2  OBJ       -4.7486717676881002e-01
    Z_436_0_2  constraint1_4360  1
    Z_436_0_2  constraint2_4362  1
    Z_436_0_3  OBJ       -6.9857300789731753e-04
    Z_436_0_3  constraint1_4360  1
    Z_436_0_3  constraint2_4363  1
    Z_436_0_4  OBJ       -4.2215066059754008e-01
    Z_436_0_4  constraint1_4360  1
    Z_55_0_0  OBJ       -3.3953343081093786e-04
    Z_55_0_0  constraint1_550  1
    Z_55_0_0  constraint2_550  1
    Z_55_0_1  OBJ       -1.3879647011443461e-03
    Z_55_0_1  constraint1_550  1
    Z_55_0_1  constraint2_551  1
    Z_55_0_2  OBJ       -6.4195384619543672e-01
    Z_55_0_2  constraint1_550  1
    Z_55_0_2  constraint2_552  1
    Z_55_0_3  OBJ       -4.3144607271266194e-04
    Z_55_0_3  constraint1_550  1
    Z_55_0_3  constraint2_553  1
    Z_55_0_4  OBJ       -2.5588720959989553e-01
    Z_55_0_4  constraint1_550  1
    Z_599_0_0  OBJ       -1.9969966410140799e-04
    Z_599_0_0  constraint1_5990  1
    Z_599_0_0  constraint2_5990  1
    Z_599_0_1  OBJ       -2.1880554212934367e-03
    Z_599_0_1  constraint1_5990  1
    Z_599_0_1  constraint2_5991  1
    Z_599_0_2  OBJ       -4.1985853851355859e-01
    Z_599_0_2  constraint1_5990  1
    Z_599_0_2  constraint2_5992  1
    Z_599_0_3  OBJ       -1.7716572631300629e-03
    Z_599_0_3  constraint1_5990  1
    Z_599_0_3  constraint2_5993  1
    Z_599_0_4  OBJ       -4.7598204913791647e-01
    Z_599_0_4  constraint1_5990  1
    Z_616_0_0  OBJ       -9.0841110766118447e-04
    Z_616_0_0  constraint1_6160  1
    Z_616_0_0  constraint2_6160  1
    Z_616_0_1  OBJ       -5.4197516256352524e-04
    Z_616_0_1  constraint1_6160  1
    Z_616_0_1  constraint2_6161  1
    Z_616_0_2  OBJ       -6.6898015214557838e-01
    Z_616_0_2  constraint1_6160  1
    Z_616_0_2  constraint2_6162  1
    Z_616_0_3  OBJ       -1.3237386946447294e-03
    Z_616_0_3  constraint1_6160  1
    Z_616_0_3  constraint2_6163  1
    Z_616_0_4  OBJ       -2.2824572288955219e-01
    Z_616_0_4  constraint1_6160  1
    Z_589_0_0  OBJ       -1.3688593949917865e-04
    Z_589_0_0  constraint1_5890  1
    Z_589_0_0  constraint2_5890  1
    Z_589_0_1  OBJ       -1.2654809030500256e-03
    Z_589_0_1  constraint1_5890  1
    Z_589_0_1  constraint2_5891  1
    Z_589_0_2  OBJ       -6.3033183928721670e-01
    Z_589_0_2  constraint1_5890  1
    Z_589_0_2  constraint2_5892  1
    Z_589_0_3  OBJ       -3.9428788122883047e-04
    Z_589_0_3  constraint1_5890  1
    Z_589_0_3  constraint2_5893  1
    Z_589_0_4  OBJ       -2.6787150598900533e-01
    Z_589_0_4  constraint1_5890  1
    Z_203_0_0  OBJ       -9.2470673834299869e-04
    Z_203_0_0  constraint1_2030  1
    Z_203_0_0  constraint2_2030  1
    Z_203_0_1  OBJ       -1.9331955872243646e-03
    Z_203_0_1  constraint1_2030  1
    Z_203_0_1  constraint2_2031  1
    Z_203_0_2  OBJ       -8.5885915549137137e-01
    Z_203_0_2  constraint1_2030  1
    Z_203_0_2  constraint2_2032  1
    Z_203_0_3  OBJ       -3.4838311158680692e-03
    Z_203_0_3  constraint1_2030  1
    Z_203_0_3  constraint2_2033  1
    Z_203_0_4  OBJ       -3.4799111067193009e-02
    Z_203_0_4  constraint1_2030  1
    MARKER    'MARKER'                 'INTEND'
RHS
    RHS1      constraint1_4367  1
    RHS1      constraint1_4362  1
    RHS1      constraint1_4364  1
    RHS1      constraint1_4365  1
    RHS1      constraint1_4361  1
    RHS1      constraint1_4366  1
    RHS1      constraint1_4360  1
    RHS1      constraint1_550  1
    RHS1      constraint1_5990  1
    RHS1      constraint1_6160  1
    RHS1      constraint1_5890  1
    RHS1      constraint1_2030  1
    RHS1      constraint2_4360  1
    RHS1      constraint2_4361  1
    RHS1      constraint2_4362  1
    RHS1      constraint2_4363  1
    RHS1      constraint2_550  1
    RHS1      constraint2_551  1
    RHS1      constraint2_552  1
    RHS1      constraint2_553  1
    RHS1      constraint2_5990  1
    RHS1      constraint2_5991  1
    RHS1      constraint2_5992  1
    RHS1      constraint2_5993  1
    RHS1      constraint2_6160  1
    RHS1      constraint2_6161  1
    RHS1      constraint2_6162  1
    RHS1      constraint2_6163  1
    RHS1      constraint2_5890  1
    RHS1      constraint2_5891  1
    RHS1      constraint2_5892  1
    RHS1      constraint2_5893  1
    RHS1      constraint2_2030  1
    RHS1      constraint2_2031  1
    RHS1      constraint2_2032  1
    RHS1      constraint2_2033  1
    RHS1      constraint2_1970  1
    RHS1      constraint2_1971  1
    RHS1      constraint2_1972  1
    RHS1      constraint2_1973  1
BOUNDS
 UP BND1      Z_436_7_0  1
 UP BND1      Z_436_7_1  1
 UP BND1      Z_436_7_2  1
 UP BND1      Z_436_7_3  1
 UP BND1      Z_436_7_4  1
 UP BND1      Z_436_2_0  1
 UP BND1      Z_436_2_1  1
 UP BND1      Z_436_2_2  1
 UP BND1      Z_436_2_3  1
 UP BND1      Z_436_2_4  1
 UP BND1      Z_436_4_0  1
 UP BND1      Z_436_4_1  1
 UP BND1      Z_436_4_2  1
 UP BND1      Z_436_4_3  1
 UP BND1      Z_436_4_4  1
 UP BND1      Z_436_5_0  1
 UP BND1      Z_436_5_1  1
 UP BND1      Z_436_5_2  1
 UP BND1      Z_436_5_3  1
 UP BND1      Z_436_5_4  1
 UP BND1      Z_436_1_0  1
 UP BND1      Z_436_1_1  1
 UP BND1      Z_436_1_2  1
 UP BND1      Z_436_1_3  1
 UP BND1      Z_436_1_4  1
 UP BND1      Z_436_6_0  1
 UP BND1      Z_436_6_1  1
 UP BND1      Z_436_6_2  1
 UP BND1      Z_436_6_3  1
 UP BND1      Z_436_6_4  1
 UP BND1      Z_436_0_0  1
 UP BND1      Z_436_0_1  1
 UP BND1      Z_436_0_2  1
 UP BND1      Z_436_0_3  1
 UP BND1      Z_436_0_4  1
 UP BND1      Z_55_0_0  1
 UP BND1      Z_55_0_1  1
 UP BND1      Z_55_0_2  1
 UP BND1      Z_55_0_3  1
 UP BND1      Z_55_0_4  1
 UP BND1      Z_599_0_0  1
 UP BND1      Z_599_0_1  1
 UP BND1      Z_599_0_2  1
 UP BND1      Z_599_0_3  1
 UP BND1      Z_599_0_4  1
 UP BND1      Z_616_0_0  1
 UP BND1      Z_616_0_1  1
 UP BND1      Z_616_0_2  1
 UP BND1      Z_616_0_3  1
 UP BND1      Z_616_0_4  1
 UP BND1      Z_589_0_0  1
 UP BND1      Z_589_0_1  1
 UP BND1      Z_589_0_2  1
 UP BND1      Z_589_0_3  1
 UP BND1      Z_589_0_4  1
 UP BND1      Z_203_0_0  1
 UP BND1      Z_203_0_1  1
 UP BND1      Z_203_0_2  1
 UP BND1      Z_203_0_3  1
 UP BND1      Z_203_0_4  1
ENDATA
